Na60 Mn16 Zn12 Fe16 Ni16 O120
1.0
  14.8409727900000004    0.0065031972930000   -0.0040923455540000
   0.0022426562940000    5.0786662990000000    0.0032594391650000
  -0.0086895368920000    0.0201909389700000   31.6063943599999995
Ni Fe Mn Zn Na O
16 16 16 12 60 120
direct
   0.0008814570000000    0.0000783150000000    0.0003529660000000 Ni
   0.1993793790000000    0.0022323720000000   -0.0000570520000000 Ni
   0.8030408920000000   -0.0003221460000000    0.0000662080000000 Ni
   0.8003109740000000    0.0007721650000000    0.3330320760000000 Ni
   0.9985354920000000    0.0012310360000000    0.6663507410000000 Ni
   0.3989852110000000   -0.0010063750000000    0.6668802280000000 Ni
   0.5995487330000000   -0.0000565020000000    0.1666042230000000 Ni
   0.6006604060000000   -0.0000796300000000    0.8334934850000000 Ni
   0.0978401130000000    0.5016547870000000    0.0001498160000000 Ni
   0.7012701690000001    0.5010770940000000    0.3332310660000000 Ni
   0.4993211810000000    0.4987933450000000    0.6670215500000000 Ni
   0.3010404560000000    0.4998509280000000    0.1666700580000000 Ni
   0.3018115450000000    0.5016421110000000    0.5001479870000000 Ni
   0.5012463970000000    0.4986522750000000    0.5002187100000000 Ni
   0.5024250160000000    0.5001090860000000    0.8332402960000000 Ni
   0.6997331100000000    0.4996057350000000    0.8336924110000000 Ni
   0.3968132570000000    0.0033760660000000    0.0000127120000000 Fe
   0.6082843900000000   -0.0003354280000000    0.3333901200000000 Fe
   0.1995178530000000   -0.0004854300000000    0.6665805640000000 Fe
   0.5989976860000000   -0.0007769160000000    0.6668182060000000 Fe
   0.2026538490000000   -0.0002545080000000    0.1667615170000000 Fe
   0.2032424810000000    0.0016634780000000    0.4998950920000000 Fe
   0.8001018800000000   -0.0003080690000000    0.4999289850000000 Fe
   0.1956650750000000   -0.0003406270000000    0.8333137420000000 Fe
   0.2935484430000000    0.5042967550000000   -0.0000472090000000 Fe
   0.4980698810000000    0.5028165830000000   -0.0000654000000000 Fe
   0.3004720660000000    0.4978302290000000    0.6667637470000000 Fe
   0.6992954550000000    0.4996858200000000    0.6667198960000000 Fe
   0.8984082520000000    0.5000858270000000    0.6667610690000000 Fe
   0.6934323920000000    0.4998156620000000    0.1665688900000000 Fe
   0.1022945630000000    0.5017748319999999    0.4998961990000000 Fe
   0.0953642900000000    0.4994376980000000    0.8334620530000000 Fe
   0.6018268380000000    0.0024810060000000   -0.0005816780000000 Mn
   0.0008711010000000    0.0001563230000000    0.3330750350000000 Mn
   0.4026774150000000    0.0000296650000000    0.3337212550000000 Mn
   0.4012687760000000    0.0005672000000000    0.1668430090000000 Mn
   0.8003745500000000   -0.0001977520000000    0.1661952070000000 Mn
   0.0005735470000000    0.0007205740000000    0.4997813900000000 Mn
   0.4021615770000000   -0.0009265140000000    0.5002033330000000 Mn
   0.4020118520000000   -0.0004927410000000    0.8333207500000001 Mn
   0.7025348150000000    0.5012895660000000   -0.0003923550000000 Mn
   0.5033982809999999    0.4994655930000000    0.3337595840000000 Mn
   0.8996838290000000    0.5011274670000000    0.3326870010000000 Mn
   0.1020050430000000    0.4989743130000000    0.1662659930000000 Mn
   0.9015341290000000    0.5002119560000000    0.1663088830000000 Mn
   0.7000129859999999    0.5000840310000000    0.4998839030000000 Mn
   0.3007079980000000    0.4996246920000000    0.8333923690000000 Mn
   0.8972908910000000    0.4997019340000000    0.8336459349999999 Mn
   0.2015438380000000    0.0003480310000000    0.3333520290000000 Zn
   0.7986906610000000    0.0001466800000000    0.6666356879999999 Zn
   0.0029735380000000    0.0003956030000000    0.1665908290000000 Zn
   0.6002578740000000    0.0000193430000000    0.5000184850000000 Zn
   0.9953831990000001    0.9993969920000000    0.8333472520000000 Zn
   0.7994874260000000   -0.0005692240000000    0.8334015000000000 Zn
   0.9011248650000000    0.4999118010000000    0.0000361880000000 Zn
   0.1083269920000000    0.5005810500000000    0.3333140300000000 Zn
   0.2993100040000000    0.5004963920000000    0.3333455410000000 Zn
   0.0994772040000000    0.4999244110000000    0.6666461660000000 Zn
   0.4993057560000000    0.4999101270000000    0.1667106740000000 Zn
   0.9002526220000000    0.5002839190000000    0.4999316790000000 Zn
   0.0020294930000000    0.3387991710000000    0.2503264010000000 Na
   0.2040879950000000    0.3238850660000000    0.2526684110000000 Na
   0.4011566350000000    0.3449633390000000    0.2488812280000000 Na
   0.5988190850000000    0.3222830920000000    0.2487286940000000 Na
   0.7982783170000000    0.3326385920000000    0.2514073010000000 Na
   0.0007807100000000    0.3407870000000000    0.5837580210000000 Na
   0.1995554250000000    0.3324681640000000    0.5828825600000000 Na
   0.3994713350000000    0.3378760770000000    0.5832075390000000 Na
   0.5968561720000000    0.3313324430000000    0.5824998960000000 Na
   0.8015947240000000    0.3263328060000000    0.5836019790000000 Na
  -0.0005733900000000    0.3328972930000000    0.9182480310000000 Na
   0.1985919300000000    0.3310014690000000    0.9186691690000000 Na
   0.4018607900000000    0.3389867120000000    0.9161098530000000 Na
   0.5989608700000000    0.3434638080000000    0.9139490080000000 Na
   0.8009115950000000    0.3249177470000000    0.9173398890000000 Na
   0.1007784850000000    0.8274149750000001    0.2509528790000000 Na
   0.3017289520000000    0.8273153810000000    0.2507879980000000 Na
   0.5024323010000000    0.8329393170000000    0.2486394700000000 Na
   0.7016957110000001    0.8234506020000000    0.2513850580000000 Na
   0.9003397110000000    0.8463892900000000    0.2500181650000000 Na
   0.0996485880000000    0.8323344770000000    0.5846692220000000 Na
   0.3035180740000000    0.8306654950000000    0.5836038260000000 Na
   0.5002383630000000    0.8325556820000000    0.5836015740000000 Na
   0.6982668820000000    0.8336549250000000    0.5833954900000000 Na
   0.8979317780000000    0.8309533000000000    0.5836237240000000 Na
   0.0984797510000000    0.8365629600000000    0.9176519710000000 Na
   0.2983516390000000    0.8387341940000000    0.9177529570000000 Na
   0.5023785150000000    0.8330527880000000    0.9153264890000000 Na
   0.7035096460000000    0.8403919360000000    0.9140568150000000 Na
   0.9000796160000000    0.8319734060000000    0.9173838940000000 Na
   0.1008456110000000    0.1563819110000000    0.0820509390000000 Na
   0.2983889460000000    0.1731384360000000    0.0830606000000000 Na
   0.5008295250000000    0.1742287330000000    0.0849524900000000 Na
   0.7006270210000000    0.1650158160000000    0.0831482670000000 Na
   0.9012478190000000    0.1695220360000000    0.0817317970000000 Na
   0.1015292660000000    0.1739096160000000    0.4149500640000000 Na
   0.3030901140000000    0.1775288330000000    0.4164329510000000 Na
   0.5044621510000000    0.1627100530000000    0.4187413370000000 Na
   0.7012869309999999    0.1759019970000000    0.4152371780000000 Na
   0.8986927210000000    0.1655040640000000    0.4160770620000000 Na
   0.0969667610000000    0.1702494240000000    0.7495454210000000 Na
   0.3019668860000000    0.1574626650000000    0.7490814810000000 Na
   0.5008281290000000    0.1639245070000000    0.7498372950000000 Na
   0.7012983060000000    0.1644805210000000    0.7519425350000000 Na
   0.8978669170000000    0.1609499930000000    0.7505548140000000 Na
   0.0020879440000000    0.6628307369999999    0.0814376730000000 Na
   0.2022276600000000    0.6706491750000000    0.0826198080000000 Na
   0.4000273630000000    0.6644931690000000    0.0854042090000000 Na
   0.5986621100000000    0.6775831500000000    0.0855153630000000 Na
   0.8019261470000000    0.6726210780000000    0.0812199560000000 Na
   0.0005741010000000    0.6559416769999999    0.4166201610000000 Na
   0.2026180950000000    0.6799811940000000    0.4143596850000000 Na
   0.4008686540000000    0.6536419590000000    0.4179950780000000 Na
   0.6006904150000000    0.6720317139999999    0.4176019080000000 Na
   0.8019236410000000    0.6703712979999999    0.4154850620000000 Na
  -0.0004539190000000    0.6689035960000000    0.7490636620000000 Na
   0.1979540730000000    0.6634749730000000    0.7486279520000000 Na
   0.4012051830000000    0.6620892229999999    0.7491812440000000 Na
   0.5972623830000000    0.6595820830000000    0.7520606640000000 Na
   0.7973480040000001    0.6734661190000000    0.7503886320000001 Na
   0.0016227630000000    0.3499872760000000    0.1326436500000000 O
   0.1936158450000000    0.3376789880000000    0.1320226590000000 O
   0.3962614750000000    0.3151451380000000    0.1324760240000000 O
   0.6049055350000000    0.3395233590000000    0.1303627390000000 O
   0.8054189050000000    0.3226428840000000    0.1330987940000000 O
   0.0039786090000000    0.3171789170000000    0.4658616060000000 O
   0.1996838250000000    0.3404215520000000    0.4650858340000000 O
   0.4038059630000000    0.3179630010000000    0.4673136570000000 O
   0.6056287590000000    0.3479851860000000    0.4661813090000000 O
   0.7943038420000000    0.3358706800000000    0.4652449500000000 O
   0.9958987780000000    0.3477558660000000    0.7987731660000000 O
   0.2053792780000000    0.3406695490000000    0.7993189550000001 O
   0.3950608560000000    0.3217645300000000    0.8005980110000001 O
   0.6026274330000000    0.3160784120000000    0.8011719450000000 O
   0.8029217010000000    0.3494637580000000    0.8001991360000000 O
   0.0039017960000000    0.3091059540000000    0.0340490410000000 O
   0.1963370670000000    0.3441054400000000    0.0343807150000000 O
   0.4031831230000000    0.3412015870000000    0.0350555230000000 O
   0.6041618700000000    0.3285121540000000    0.0321596940000000 O
   0.7917377040000000    0.3460357220000000    0.0344991340000000 O
   0.9927133339999999    0.3221392600000000    0.3653526750000000 O
   0.2036926830000000    0.3301196330000000    0.3695021770000000 O
   0.4129401710000000    0.3205679790000000    0.3667424730000000 O
   0.5957526370000000    0.3395136000000000    0.3678519180000000 O
   0.8059759510000000    0.3451416940000000    0.3659358310000000 O
   0.9953129420000000    0.3122103900000000    0.6999192780000000 O
   0.2040532630000000    0.3244035080000000    0.7022649200000000 O
   0.4034531720000000    0.3362308430000000    0.7010028640000000 O
   0.5952706600000000    0.3358368640000000    0.7012341570000000 O
   0.7975513960000000    0.3477170060000000    0.7023463260000000 O
   0.1039535770000000    0.8159780550000000    0.1318827910000000 O
   0.3039102810000000    0.8457873150000000    0.1328242950000000 O
   0.4947636500000000    0.8478297180000000    0.1324439790000000 O
   0.7084414840000000    0.8391455190000000    0.1318213370000000 O
   0.8952023780000000    0.8224858460000000    0.1332062110000000 O
   0.0965978370000000    0.8428609290000000    0.4655306310000000 O
   0.3047367670000000    0.8463416000000000    0.4660689750000000 O
   0.4942019780000000    0.8339073760000000    0.4664377160000000 O
   0.7048704590000000    0.8169068070000000    0.4653958860000000 O
   0.9057475400000000    0.8505007040000000    0.4655282850000000 O
   0.1050122880000000    0.8307849240000000    0.7978659000000000 O
   0.3048126560000000    0.8241363350000001    0.8008902700000000 O
   0.4946910880000000    0.8465684390000000    0.7999701520000000 O
   0.6946083930000000    0.8138066560000000    0.8012280830000000 O
   0.8982366560000000    0.8102756990000000    0.7983693940000000 O
   0.0952505970000000    0.8244287370000000    0.0313750740000000 O
   0.3041156370000000    0.8345598290000000    0.0353492600000000 O
   0.5061522580000000    0.8447219630000000    0.0333506610000000 O
   0.6950443130000000    0.8228890020000000    0.0325586600000000 O
   0.9071603550000000    0.8470658150000000    0.0338824060000000 O
   0.0891942740000000    0.8465341680000000    0.3680975810000000 O
   0.3146971790000000    0.8477742920000000    0.3684924460000000 O
   0.5008024700000000    0.8217345370000000    0.3664427040000000 O
   0.7007037510000000    0.8401061350000000    0.3688373110000000 O
   0.9047664280000000    0.8212419790000000    0.3656690750000000 O
   0.0939519140000000    0.8493854680000000    0.6994685120000000 O
   0.2970274560000000    0.8247543580000000    0.7020840370000000 O
   0.4995865230000000    0.8162770000000000    0.6998015670000000 O
   0.6944163430000000    0.8310067450000000    0.7023700300000000 O
   0.9065910860000000    0.8380213909999999    0.6994001880000000 O
   0.1042603060000000    0.1839217790000000    0.2009416580000000 O
   0.3038648350000000    0.1549962530000000    0.2007286960000000 O
   0.4947152460000000    0.1534311760000000    0.2010033760000000 O
   0.7079423600000000    0.1567373730000000    0.1999545680000000 O
   0.8947965520000000    0.1782432330000000    0.1993388850000000 O
   0.0961069740000000    0.1607198830000000    0.5340974110000000 O
   0.3047673590000000    0.1552312910000000    0.5339476210000000 O
   0.4939789790000000    0.1605996050000000    0.5343371500000000 O
   0.7046221930000000    0.1837764850000000    0.5343002600000000 O
   0.9057061610000000    0.1501154750000000    0.5339301630000000 O
   0.1052810160000000    0.1681441030000000    0.8690641520000000 O
   0.3048139620000000    0.1748187360000000    0.8660120980000000 O
   0.4952299320000000    0.1532903660000000    0.8666518000000000 O
   0.6952696730000000    0.1863641250000000    0.8666896410000000 O
   0.8993907850000000    0.1874464760000000    0.8687015230000000 O
   0.0939334950000000    0.1769972580000000    0.9689499290000000 O
   0.3040512620000000    0.1759194430000000    0.9644664540000000 O
   0.5059227530000000    0.1632909660000000    0.9653060980000000 O
   0.6952025290000000    0.1789528680000000    0.9666607260000000 O
   0.9070473440000000    0.1505727710000000    0.9675669070000000 O
   0.0904764290000000    0.1526978720000000    0.2983255990000000 O
   0.3150430820000000    0.1528980770000000    0.2987605420000000 O
   0.4999997950000000    0.1775875510000000    0.3011336140000000 O
   0.6983542060000000    0.1619213010000000    0.2975297630000000 O
   0.9046498280000000    0.1798319090000000    0.2996543560000000 O
   0.0943673790000000    0.1527107050000000    0.6333633850000000 O
   0.2968173860000000    0.1721100680000000    0.6314276370000000 O
   0.4982797090000000    0.1826176910000000    0.6344631060000000 O
   0.6944523830000000    0.1687219880000000    0.6313180640000000 O
   0.9065815240000000    0.1672638790000000    0.6326959750000000 O
   0.0017343550000000    0.6499058390000000    0.1996068850000000 O
   0.1939129130000000    0.6582287010000000    0.2001523820000000 O
   0.3968564700000000    0.6854510780000000    0.2010077980000000 O
   0.6054404390000000    0.6603944830000000    0.2025946700000000 O
   0.8053061170000000    0.6774009519999999    0.1992777250000000 O
   0.0038523140000000    0.6835067960000000    0.5336284480000000 O
   0.1984628480000000    0.6709496420000000    0.5352363800000000 O
   0.4031017470000000    0.6810994660000000    0.5334328330000000 O
   0.6050552230000000    0.6513618180000000    0.5334990330000000 O
   0.7941641030000000    0.6648244610000000    0.5342902300000000 O
   0.9963748690000001    0.6519786130000000    0.8683063800000000 O
   0.2053611350000000    0.6580405600000000    0.8675121850000000 O
   0.3949740920000000    0.6780703570000000    0.8663639780000000 O
   0.6028021980000000    0.6828893410000000    0.8659819390000000 O
   0.8039714390000000    0.6504751550000000    0.8679455790000000 O
   0.0045862200000000    0.6862777930000000    0.9675364940000000 O
   0.1982390040000000    0.6665093800000000    0.9647133630000000 O
   0.4036682110000000    0.6707682010000000    0.9643240540000000 O
   0.6046105200000000    0.6767569440000000    0.9663509770000001 O
   0.7921800660000000    0.6548964240000000    0.9653229660000000 O
   0.9930968120000000    0.6797405470000000    0.2999306460000000 O
   0.2033464410000000    0.6722767740000000    0.2969223120000000 O
   0.4123168000000000    0.6782212610000000    0.3012439710000000 O
   0.5953807960000000    0.6583125660000000    0.2994766690000000 O
   0.8060054550000000    0.6580806410000000    0.2989824390000000 O
   0.9955238990000000    0.6882233900000000    0.6333170890000001 O
   0.2046649280000000    0.6716999750000000    0.6314230800000000 O
   0.4041061150000000    0.6577986510000000    0.6341747970000000 O
   0.5952893860000000    0.6637049060000000    0.6324390380000000 O
   0.7974220620000000    0.6518262820000000    0.6311929210000000 O
