 convert from PWmat
           1
   14.8409700000000       6.503200000000000E-003 -4.092350000000000E-003
  2.242660000000000E-003   5.07866600000000       3.259440000000000E-003
 -8.689540000000001E-003  2.019094000000000E-002   31.6063900000000     
 Ni Fe Mn Zn Na O  
    16    16    16    12    60   120 
 DIRECT
 8.809999999999999E-004  7.800000000000000E-005  3.530000000000000E-004 T T T
 0.199379000000000       2.232000000000000E-003  0.999943000000000      T T T
 0.803041000000000       0.999678000000000       6.600000000000001E-005 T T T
 0.800311000000000       7.720000000000000E-004  0.333032000000000      T T T
 0.998535000000000       1.231000000000000E-003  0.666351000000000      T T T
 0.398985000000000       0.998994000000000       0.666880000000000      T T T
 0.599549000000000       0.999943000000000       0.166604000000000      T T T
 0.600660000000000       0.999920000000000       0.833493000000000      T T T
 9.784000000000000E-002  0.501655000000000       1.500000000000000E-004 T T T
 0.701270000000000       0.501077000000000       0.333231000000000      T T T
 0.499321000000000       0.498793000000000       0.667022000000000      T T T
 0.301040000000000       0.499851000000000       0.166670000000000      T T T
 0.301812000000000       0.501642000000000       0.500148000000000      T T T
 0.501246000000000       0.498652000000000       0.500219000000000      T T T
 0.502425000000000       0.500109000000000       0.833240000000000      T T T
 0.699733000000000       0.499606000000000       0.833692000000000      T T T
 0.396813000000000       3.376000000000000E-003  1.300000000000000E-005 T T T
 0.608284000000000       0.999665000000000       0.333390000000000      T T T
 0.199518000000000       0.999515000000000       0.666581000000000      T T T
 0.598998000000000       0.999223000000000       0.666818000000000      T T T
 0.202654000000000       0.999745000000000       0.166762000000000      T T T
 0.203242000000000       1.663000000000000E-003  0.499895000000000      T T T
 0.800102000000000       0.999692000000000       0.499929000000000      T T T
 0.195665000000000       0.999659000000000       0.833314000000000      T T T
 0.293548000000000       0.504297000000000       0.999953000000000      T T T
 0.498070000000000       0.502817000000000       0.999935000000000      T T T
 0.300472000000000       0.497830000000000       0.666764000000000      T T T
 0.699295000000000       0.499686000000000       0.666720000000000      T T T
 0.898408000000000       0.500086000000000       0.666761000000000      T T T
 0.693432000000000       0.499816000000000       0.166569000000000      T T T
 0.102295000000000       0.501775000000000       0.499896000000000      T T T
 9.536400000000000E-002  0.499438000000000       0.833462000000000      T T T
 0.601827000000000       2.481000000000000E-003  0.999418000000000      T T T
 8.710000000000000E-004  1.560000000000000E-004  0.333075000000000      T T T
 0.402677000000000       3.000000000000000E-005  0.333721000000000      T T T
 0.401269000000000       5.670000000000000E-004  0.166843000000000      T T T
 0.800375000000000       0.999802000000000       0.166195000000000      T T T
 5.740000000000000E-004  7.210000000000000E-004  0.499781000000000      T T T
 0.402162000000000       0.999073000000000       0.500203000000000      T T T
 0.402012000000000       0.999507000000000       0.833321000000000      T T T
 0.702535000000000       0.501290000000000       0.999608000000000      T T T
 0.503398000000000       0.499466000000000       0.333760000000000      T T T
 0.899684000000000       0.501127000000000       0.332687000000000      T T T
 0.102005000000000       0.498974000000000       0.166266000000000      T T T
 0.901534000000000       0.500212000000000       0.166309000000000      T T T
 0.700013000000000       0.500084000000000       0.499884000000000      T T T
 0.300708000000000       0.499625000000000       0.833392000000000      T T T
 0.897291000000000       0.499702000000000       0.833646000000000      T T T
 0.201544000000000       3.480000000000000E-004  0.333352000000000      T T T
 0.798691000000000       1.470000000000000E-004  0.666636000000000      T T T
 2.974000000000000E-003  3.960000000000000E-004  0.166591000000000      T T T
 0.600258000000000       1.900000000000000E-005  0.500018000000000      T T T
 0.995383000000000       0.999397000000000       0.833347000000000      T T T
 0.799487000000000       0.999431000000000       0.833402000000000      T T T
 0.901125000000000       0.499912000000000       3.600000000000000E-005 T T T
 0.108327000000000       0.500581000000000       0.333314000000000      T T T
 0.299310000000000       0.500496000000000       0.333346000000000      T T T
 9.947700000000000E-002  0.499924000000000       0.666646000000000      T T T
 0.499306000000000       0.499910000000000       0.166711000000000      T T T
 0.900253000000000       0.500284000000000       0.499932000000000      T T T
 2.029000000000000E-003  0.338799000000000       0.250326000000000      T T T
 0.204088000000000       0.323885000000000       0.252668000000000      T T T
 0.401157000000000       0.344963000000000       0.248881000000000      T T T
 0.598819000000000       0.322283000000000       0.248729000000000      T T T
 0.798278000000000       0.332639000000000       0.251407000000000      T T T
 7.810000000000000E-004  0.340787000000000       0.583758000000000      T T T
 0.199555000000000       0.332468000000000       0.582883000000000      T T T
 0.399471000000000       0.337876000000000       0.583208000000000      T T T
 0.596856000000000       0.331332000000000       0.582500000000000      T T T
 0.801595000000000       0.326333000000000       0.583602000000000      T T T
 0.999427000000000       0.332897000000000       0.918248000000000      T T T
 0.198592000000000       0.331001000000000       0.918669000000000      T T T
 0.401861000000000       0.338987000000000       0.916110000000000      T T T
 0.598961000000000       0.343464000000000       0.913949000000000      T T T
 0.800912000000000       0.324918000000000       0.917340000000000      T T T
 0.100778000000000       0.827415000000000       0.250953000000000      T T T
 0.301729000000000       0.827315000000000       0.250788000000000      T T T
 0.502432000000000       0.832939000000000       0.248639000000000      T T T
 0.701696000000000       0.823451000000000       0.251385000000000      T T T
 0.900340000000000       0.846389000000000       0.250018000000000      T T T
 9.964900000000000E-002  0.832334000000000       0.584669000000000      T T T
 0.303518000000000       0.830665000000000       0.583604000000000      T T T
 0.500238000000000       0.832556000000000       0.583602000000000      T T T
 0.698267000000000       0.833655000000000       0.583395000000000      T T T
 0.897932000000000       0.830953000000000       0.583624000000000      T T T
 9.848000000000000E-002  0.836563000000000       0.917652000000000      T T T
 0.298352000000000       0.838734000000000       0.917753000000000      T T T
 0.502379000000000       0.833053000000000       0.915326000000000      T T T
 0.703510000000000       0.840392000000000       0.914057000000000      T T T
 0.900080000000000       0.831973000000000       0.917384000000000      T T T
 0.100846000000000       0.156382000000000       8.205100000000000E-002 T T T
 0.298389000000000       0.173138000000000       8.306100000000000E-002 T T T
 0.500830000000000       0.174229000000000       8.495200000000000E-002 T T T
 0.700627000000000       0.165016000000000       8.314800000000000E-002 T T T
 0.901248000000000       0.169522000000000       8.173200000000000E-002 T T T
 0.101529000000000       0.173910000000000       0.414950000000000      T T T
 0.303090000000000       0.177529000000000       0.416433000000000      T T T
 0.504462000000000       0.162710000000000       0.418741000000000      T T T
 0.701287000000000       0.175902000000000       0.415237000000000      T T T
 0.898693000000000       0.165504000000000       0.416077000000000      T T T
 9.696700000000000E-002  0.170249000000000       0.749545000000000      T T T
 0.301967000000000       0.157463000000000       0.749081000000000      T T T
 0.500828000000000       0.163925000000000       0.749837000000000      T T T
 0.701298000000000       0.164481000000000       0.751943000000000      T T T
 0.897867000000000       0.160950000000000       0.750555000000000      T T T
 2.088000000000000E-003  0.662831000000000       8.143800000000000E-002 T T T
 0.202228000000000       0.670649000000000       8.262000000000000E-002 T T T
 0.400027000000000       0.664493000000000       8.540399999999999E-002 T T T
 0.598662000000000       0.677583000000000       8.551499999999999E-002 T T T
 0.801926000000000       0.672621000000000       8.122000000000000E-002 T T T
 5.740000000000000E-004  0.655942000000000       0.416620000000000      T T T
 0.202618000000000       0.679981000000000       0.414360000000000      T T T
 0.400869000000000       0.653642000000000       0.417995000000000      T T T
 0.600690000000000       0.672032000000000       0.417602000000000      T T T
 0.801924000000000       0.670371000000000       0.415485000000000      T T T
 0.999546000000000       0.668904000000000       0.749064000000000      T T T
 0.197954000000000       0.663475000000000       0.748628000000000      T T T
 0.401205000000000       0.662089000000000       0.749181000000000      T T T
 0.597262000000000       0.659582000000000       0.752061000000000      T T T
 0.797348000000000       0.673466000000000       0.750389000000000      T T T
 1.623000000000000E-003  0.349987000000000       0.132644000000000      T T T
 0.193616000000000       0.337679000000000       0.132023000000000      T T T
 0.396261000000000       0.315145000000000       0.132476000000000      T T T
 0.604906000000000       0.339523000000000       0.130363000000000      T T T
 0.805419000000000       0.322643000000000       0.133099000000000      T T T
 3.979000000000000E-003  0.317179000000000       0.465862000000000      T T T
 0.199684000000000       0.340422000000000       0.465086000000000      T T T
 0.403806000000000       0.317963000000000       0.467314000000000      T T T
 0.605629000000000       0.347985000000000       0.466181000000000      T T T
 0.794304000000000       0.335871000000000       0.465245000000000      T T T
 0.995899000000000       0.347756000000000       0.798773000000000      T T T
 0.205379000000000       0.340670000000000       0.799319000000000      T T T
 0.395061000000000       0.321765000000000       0.800598000000000      T T T
 0.602627000000000       0.316078000000000       0.801172000000000      T T T
 0.802922000000000       0.349464000000000       0.800199000000000      T T T
 3.902000000000000E-003  0.309106000000000       3.404900000000000E-002 T T T
 0.196337000000000       0.344105000000000       3.438100000000000E-002 T T T
 0.403183000000000       0.341202000000000       3.505600000000000E-002 T T T
 0.604162000000000       0.328512000000000       3.216000000000000E-002 T T T
 0.791738000000000       0.346036000000000       3.449900000000000E-002 T T T
 0.992713000000000       0.322139000000000       0.365353000000000      T T T
 0.203693000000000       0.330120000000000       0.369502000000000      T T T
 0.412940000000000       0.320568000000000       0.366742000000000      T T T
 0.595753000000000       0.339514000000000       0.367852000000000      T T T
 0.805976000000000       0.345142000000000       0.365936000000000      T T T
 0.995313000000000       0.312210000000000       0.699919000000000      T T T
 0.204053000000000       0.324404000000000       0.702265000000000      T T T
 0.403453000000000       0.336231000000000       0.701003000000000      T T T
 0.595271000000000       0.335837000000000       0.701234000000000      T T T
 0.797551000000000       0.347717000000000       0.702346000000000      T T T
 0.103954000000000       0.815978000000000       0.131883000000000      T T T
 0.303910000000000       0.845787000000000       0.132824000000000      T T T
 0.494764000000000       0.847830000000000       0.132444000000000      T T T
 0.708441000000000       0.839146000000000       0.131821000000000      T T T
 0.895202000000000       0.822486000000000       0.133206000000000      T T T
 9.659800000000000E-002  0.842861000000000       0.465531000000000      T T T
 0.304737000000000       0.846342000000000       0.466069000000000      T T T
 0.494202000000000       0.833907000000000       0.466438000000000      T T T
 0.704870000000000       0.816907000000000       0.465396000000000      T T T
 0.905748000000000       0.850501000000000       0.465528000000000      T T T
 0.105012000000000       0.830785000000000       0.797866000000000      T T T
 0.304813000000000       0.824136000000000       0.800890000000000      T T T
 0.494691000000000       0.846568000000000       0.799970000000000      T T T
 0.694608000000000       0.813807000000000       0.801228000000000      T T T
 0.898237000000000       0.810276000000000       0.798369000000000      T T T
 9.525100000000000E-002  0.824429000000000       3.137500000000000E-002 T T T
 0.304116000000000       0.834560000000000       3.534900000000000E-002 T T T
 0.506152000000000       0.844722000000000       3.335100000000000E-002 T T T
 0.695044000000000       0.822889000000000       3.255900000000000E-002 T T T
 0.907160000000000       0.847066000000000       3.388200000000000E-002 T T T
 8.919400000000000E-002  0.846534000000000       0.368098000000000      T T T
 0.314697000000000       0.847774000000000       0.368492000000000      T T T
 0.500802000000000       0.821735000000000       0.366443000000000      T T T
 0.700704000000000       0.840106000000000       0.368837000000000      T T T
 0.904766000000000       0.821242000000000       0.365669000000000      T T T
 9.395199999999999E-002  0.849385000000000       0.699469000000000      T T T
 0.297027000000000       0.824754000000000       0.702084000000000      T T T
 0.499587000000000       0.816277000000000       0.699802000000000      T T T
 0.694416000000000       0.831007000000000       0.702370000000000      T T T
 0.906591000000000       0.838021000000000       0.699400000000000      T T T
 0.104260000000000       0.183922000000000       0.200942000000000      T T T
 0.303865000000000       0.154996000000000       0.200729000000000      T T T
 0.494715000000000       0.153431000000000       0.201003000000000      T T T
 0.707942000000000       0.156737000000000       0.199955000000000      T T T
 0.894797000000000       0.178243000000000       0.199339000000000      T T T
 9.610700000000000E-002  0.160720000000000       0.534097000000000      T T T
 0.304767000000000       0.155231000000000       0.533948000000000      T T T
 0.493979000000000       0.160600000000000       0.534337000000000      T T T
 0.704622000000000       0.183776000000000       0.534300000000000      T T T
 0.905706000000000       0.150115000000000       0.533930000000000      T T T
 0.105281000000000       0.168144000000000       0.869064000000000      T T T
 0.304814000000000       0.174819000000000       0.866012000000000      T T T
 0.495230000000000       0.153290000000000       0.866652000000000      T T T
 0.695270000000000       0.186364000000000       0.866690000000000      T T T
 0.899391000000000       0.187446000000000       0.868702000000000      T T T
 9.393300000000000E-002  0.176997000000000       0.968950000000000      T T T
 0.304051000000000       0.175919000000000       0.964466000000000      T T T
 0.505923000000000       0.163291000000000       0.965306000000000      T T T
 0.695203000000000       0.178953000000000       0.966661000000000      T T T
 0.907047000000000       0.150573000000000       0.967567000000000      T T T
 9.047600000000000E-002  0.152698000000000       0.298326000000000      T T T
 0.315043000000000       0.152898000000000       0.298761000000000      T T T
 0.500000000000000       0.177588000000000       0.301134000000000      T T T
 0.698354000000000       0.161921000000000       0.297530000000000      T T T
 0.904650000000000       0.179832000000000       0.299654000000000      T T T
 9.436700000000001E-002  0.152711000000000       0.633363000000000      T T T
 0.296817000000000       0.172110000000000       0.631428000000000      T T T
 0.498280000000000       0.182618000000000       0.634463000000000      T T T
 0.694452000000000       0.168722000000000       0.631318000000000      T T T
 0.906582000000000       0.167264000000000       0.632696000000000      T T T
 1.734000000000000E-003  0.649906000000000       0.199607000000000      T T T
 0.193913000000000       0.658229000000000       0.200152000000000      T T T
 0.396856000000000       0.685451000000000       0.201008000000000      T T T
 0.605440000000000       0.660394000000000       0.202595000000000      T T T
 0.805306000000000       0.677401000000000       0.199278000000000      T T T
 3.852000000000000E-003  0.683507000000000       0.533628000000000      T T T
 0.198463000000000       0.670950000000000       0.535236000000000      T T T
 0.403102000000000       0.681099000000000       0.533433000000000      T T T
 0.605055000000000       0.651362000000000       0.533499000000000      T T T
 0.794164000000000       0.664824000000000       0.534290000000000      T T T
 0.996375000000000       0.651979000000000       0.868306000000000      T T T
 0.205361000000000       0.658041000000000       0.867512000000000      T T T
 0.394974000000000       0.678070000000000       0.866364000000000      T T T
 0.602802000000000       0.682889000000000       0.865982000000000      T T T
 0.803971000000000       0.650475000000000       0.867946000000000      T T T
 4.586000000000000E-003  0.686278000000000       0.967536000000000      T T T
 0.198239000000000       0.666509000000000       0.964713000000000      T T T
 0.403668000000000       0.670768000000000       0.964324000000000      T T T
 0.604611000000000       0.676757000000000       0.966351000000000      T T T
 0.792180000000000       0.654896000000000       0.965323000000000      T T T
 0.993097000000000       0.679741000000000       0.299931000000000      T T T
 0.203346000000000       0.672277000000000       0.296922000000000      T T T
 0.412317000000000       0.678221000000000       0.301244000000000      T T T
 0.595381000000000       0.658313000000000       0.299477000000000      T T T
 0.806005000000000       0.658081000000000       0.298982000000000      T T T
 0.995524000000000       0.688223000000000       0.633317000000000      T T T
 0.204665000000000       0.671700000000000       0.631423000000000      T T T
 0.404106000000000       0.657799000000000       0.634175000000000      T T T
 0.595289000000000       0.663705000000000       0.632439000000000      T T T
 0.797422000000000       0.651826000000000       0.631193000000000      T T T
