Na60 Mn16 Zn12 Fe16 Ni16 O120
1.0
  14.8409700000000004    0.0065032000000000   -0.0040923500000000
   0.0022426600000000    5.0786660000000001    0.0032594400000000
  -0.0086895400000000    0.0201909400000000   31.6063900000000011
Ni Fe Mn Zn Na O
16 16 16 12 60 120
direct
   0.0008810000000000    0.0000780000000000    0.0003530000000000 Ni
   0.1993790000000000    0.0022320000000000    0.9999430000000000 Ni
   0.8030410000000000    0.9996780000000000    0.0000660000000000 Ni
   0.8003110000000000    0.0007720000000000    0.3330320000000000 Ni
   0.9985350000000000    0.0012310000000000    0.6663510000000000 Ni
   0.3989850000000000    0.9989940000000000    0.6668800000000000 Ni
   0.5995490000000000    0.9999430000000000    0.1666040000000000 Ni
   0.6006600000000000    0.9999200000000000    0.8334930000000000 Ni
   0.0978400000000000    0.5016550000000000    0.0001500000000000 Ni
   0.7012699999999999    0.5010770000000000    0.3332310000000000 Ni
   0.4993210000000000    0.4987930000000000    0.6670220000000000 Ni
   0.3010400000000000    0.4998510000000000    0.1666700000000000 Ni
   0.3018120000000000    0.5016420000000000    0.5001480000000000 Ni
   0.5012460000000000    0.4986520000000000    0.5002190000000000 Ni
   0.5024250000000000    0.5001090000000000    0.8332400000000000 Ni
   0.6997330000000000    0.4996060000000000    0.8336920000000000 Ni
   0.3968130000000000    0.0033760000000000    0.0000130000000000 Fe
   0.6082840000000000    0.9996650000000000    0.3333900000000000 Fe
   0.1995180000000000    0.9995150000000000    0.6665810000000000 Fe
   0.5989980000000000    0.9992230000000000    0.6668180000000000 Fe
   0.2026540000000000    0.9997450000000000    0.1667620000000000 Fe
   0.2032420000000000    0.0016630000000000    0.4998950000000000 Fe
   0.8001020000000000    0.9996920000000000    0.4999290000000000 Fe
   0.1956650000000000    0.9996590000000000    0.8333140000000000 Fe
   0.2935480000000000    0.5042970000000000    0.9999530000000000 Fe
   0.4980700000000000    0.5028170000000000    0.9999350000000000 Fe
   0.3004720000000000    0.4978300000000000    0.6667640000000000 Fe
   0.6992950000000000    0.4996860000000000    0.6667200000000000 Fe
   0.8984080000000000    0.5000860000000000    0.6667610000000000 Fe
   0.6934320000000000    0.4998160000000000    0.1665690000000000 Fe
   0.1022950000000000    0.5017750000000000    0.4998960000000000 Fe
   0.0953640000000000    0.4994380000000000    0.8334620000000000 Fe
   0.6018270000000000    0.0024810000000000    0.9994180000000000 Mn
   0.0008710000000000    0.0001560000000000    0.3330750000000000 Mn
   0.4026770000000000    0.0000300000000000    0.3337210000000000 Mn
   0.4012690000000000    0.0005670000000000    0.1668430000000000 Mn
   0.8003749999999999    0.9998020000000000    0.1661950000000000 Mn
   0.0005740000000000    0.0007210000000000    0.4997810000000000 Mn
   0.4021620000000000    0.9990730000000000    0.5002030000000000 Mn
   0.4020120000000000    0.9995070000000000    0.8333210000000000 Mn
   0.7025350000000000    0.5012900000000000    0.9996080000000001 Mn
   0.5033980000000000    0.4994660000000000    0.3337600000000000 Mn
   0.8996840000000000    0.5011270000000000    0.3326870000000000 Mn
   0.1020050000000000    0.4989740000000000    0.1662660000000000 Mn
   0.9015339999999999    0.5002120000000000    0.1663090000000000 Mn
   0.7000130000000000    0.5000840000000000    0.4998840000000000 Mn
   0.3007080000000000    0.4996250000000000    0.8333920000000000 Mn
   0.8972909999999999    0.4997020000000000    0.8336460000000000 Mn
   0.2015440000000000    0.0003480000000000    0.3333520000000000 Zn
   0.7986910000000000    0.0001470000000000    0.6666360000000000 Zn
   0.0029740000000000    0.0003960000000000    0.1665910000000000 Zn
   0.6002580000000000    0.0000190000000000    0.5000180000000000 Zn
   0.9953830000000000    0.9993970000000000    0.8333469999999999 Zn
   0.7994869999999999    0.9994310000000000    0.8334020000000000 Zn
   0.9011250000000000    0.4999120000000000    0.0000360000000000 Zn
   0.1083270000000000    0.5005810000000001    0.3333140000000000 Zn
   0.2993100000000000    0.5004960000000001    0.3333460000000000 Zn
   0.0994770000000000    0.4999240000000000    0.6666460000000000 Zn
   0.4993060000000000    0.4999100000000000    0.1667110000000000 Zn
   0.9002530000000000    0.5002840000000000    0.4999320000000000 Zn
   0.0020290000000000    0.3387990000000000    0.2503260000000000 Na
   0.2040880000000000    0.3238850000000000    0.2526680000000000 Na
   0.4011570000000000    0.3449630000000000    0.2488810000000000 Na
   0.5988190000000000    0.3222830000000000    0.2487290000000000 Na
   0.7982780000000000    0.3326390000000000    0.2514070000000000 Na
   0.0007810000000000    0.3407870000000000    0.5837580000000000 Na
   0.1995550000000000    0.3324680000000000    0.5828830000000000 Na
   0.3994710000000000    0.3378760000000000    0.5832079999999999 Na
   0.5968560000000001    0.3313320000000000    0.5825000000000000 Na
   0.8015949999999999    0.3263330000000000    0.5836020000000000 Na
   0.9994270000000000    0.3328970000000000    0.9182480000000000 Na
   0.1985920000000000    0.3310010000000000    0.9186690000000000 Na
   0.4018610000000000    0.3389870000000000    0.9161100000000000 Na
   0.5989610000000000    0.3434640000000000    0.9139490000000000 Na
   0.8009120000000000    0.3249180000000000    0.9173400000000000 Na
   0.1007780000000000    0.8274150000000000    0.2509530000000000 Na
   0.3017290000000000    0.8273150000000000    0.2507880000000000 Na
   0.5024320000000000    0.8329390000000000    0.2486390000000000 Na
   0.7016960000000000    0.8234510000000000    0.2513850000000000 Na
   0.9003400000000000    0.8463889999999999    0.2500180000000000 Na
   0.0996490000000000    0.8323340000000000    0.5846690000000000 Na
   0.3035180000000000    0.8306650000000000    0.5836040000000000 Na
   0.5002380000000000    0.8325560000000000    0.5836020000000000 Na
   0.6982670000000000    0.8336550000000000    0.5833950000000000 Na
   0.8979320000000000    0.8309530000000001    0.5836240000000000 Na
   0.0984800000000000    0.8365629999999999    0.9176520000000000 Na
   0.2983520000000000    0.8387340000000000    0.9177530000000000 Na
   0.5023790000000000    0.8330530000000000    0.9153260000000000 Na
   0.7035100000000000    0.8403920000000000    0.9140570000000000 Na
   0.9000800000000000    0.8319730000000000    0.9173840000000000 Na
   0.1008460000000000    0.1563820000000000    0.0820510000000000 Na
   0.2983890000000000    0.1731380000000000    0.0830610000000000 Na
   0.5008300000000000    0.1742290000000000    0.0849520000000000 Na
   0.7006270000000000    0.1650160000000000    0.0831480000000000 Na
   0.9012480000000000    0.1695220000000000    0.0817320000000000 Na
   0.1015290000000000    0.1739100000000000    0.4149500000000000 Na
   0.3030900000000000    0.1775290000000000    0.4164330000000000 Na
   0.5044620000000000    0.1627100000000000    0.4187410000000000 Na
   0.7012870000000000    0.1759020000000000    0.4152370000000000 Na
   0.8986930000000000    0.1655040000000000    0.4160770000000000 Na
   0.0969670000000000    0.1702490000000000    0.7495450000000000 Na
   0.3019670000000000    0.1574630000000000    0.7490810000000000 Na
   0.5008280000000001    0.1639250000000000    0.7498370000000000 Na
   0.7012980000000000    0.1644810000000000    0.7519430000000000 Na
   0.8978670000000000    0.1609500000000000    0.7505550000000000 Na
   0.0020880000000000    0.6628309999999999    0.0814380000000000 Na
   0.2022280000000000    0.6706490000000001    0.0826200000000000 Na
   0.4000270000000000    0.6644930000000000    0.0854040000000000 Na
   0.5986620000000000    0.6775830000000000    0.0855150000000000 Na
   0.8019260000000000    0.6726210000000000    0.0812200000000000 Na
   0.0005740000000000    0.6559420000000000    0.4166200000000000 Na
   0.2026180000000000    0.6799809999999999    0.4143600000000000 Na
   0.4008690000000000    0.6536419999999999    0.4179950000000000 Na
   0.6006899999999999    0.6720320000000000    0.4176020000000000 Na
   0.8019240000000000    0.6703710000000001    0.4154850000000000 Na
   0.9995460000000000    0.6689040000000001    0.7490640000000000 Na
   0.1979540000000000    0.6634750000000000    0.7486280000000000 Na
   0.4012050000000000    0.6620890000000000    0.7491810000000000 Na
   0.5972620000000000    0.6595820000000000    0.7520610000000000 Na
   0.7973479999999999    0.6734660000000000    0.7503890000000000 Na
   0.0016230000000000    0.3499870000000000    0.1326440000000000 O
   0.1936160000000000    0.3376790000000000    0.1320230000000000 O
   0.3962610000000000    0.3151450000000000    0.1324760000000000 O
   0.6049060000000001    0.3395230000000000    0.1303630000000000 O
   0.8054190000000000    0.3226430000000000    0.1330990000000000 O
   0.0039790000000000    0.3171790000000000    0.4658620000000000 O
   0.1996840000000000    0.3404220000000000    0.4650860000000000 O
   0.4038060000000000    0.3179630000000000    0.4673140000000000 O
   0.6056290000000000    0.3479850000000000    0.4661810000000000 O
   0.7943040000000000    0.3358710000000000    0.4652450000000000 O
   0.9958990000000000    0.3477560000000000    0.7987730000000000 O
   0.2053790000000000    0.3406700000000000    0.7993190000000000 O
   0.3950610000000000    0.3217650000000000    0.8005980000000000 O
   0.6026270000000000    0.3160780000000000    0.8011720000000000 O
   0.8029220000000000    0.3494640000000000    0.8001990000000000 O
   0.0039020000000000    0.3091060000000000    0.0340490000000000 O
   0.1963370000000000    0.3441050000000000    0.0343810000000000 O
   0.4031830000000000    0.3412020000000000    0.0350560000000000 O
   0.6041620000000000    0.3285120000000000    0.0321600000000000 O
   0.7917380000000001    0.3460360000000000    0.0344990000000000 O
   0.9927130000000000    0.3221390000000000    0.3653530000000000 O
   0.2036930000000000    0.3301200000000000    0.3695020000000000 O
   0.4129400000000000    0.3205680000000000    0.3667420000000000 O
   0.5957530000000000    0.3395140000000000    0.3678520000000000 O
   0.8059760000000000    0.3451420000000000    0.3659360000000000 O
   0.9953130000000000    0.3122100000000000    0.6999190000000000 O
   0.2040530000000000    0.3244040000000000    0.7022650000000000 O
   0.4034530000000000    0.3362310000000000    0.7010030000000000 O
   0.5952710000000000    0.3358370000000000    0.7012340000000000 O
   0.7975510000000000    0.3477170000000000    0.7023460000000000 O
   0.1039540000000000    0.8159780000000000    0.1318830000000000 O
   0.3039100000000000    0.8457870000000000    0.1328240000000000 O
   0.4947640000000000    0.8478300000000000    0.1324440000000000 O
   0.7084410000000000    0.8391459999999999    0.1318210000000000 O
   0.8952020000000001    0.8224860000000001    0.1332060000000000 O
   0.0965980000000000    0.8428610000000000    0.4655310000000000 O
   0.3047370000000000    0.8463420000000000    0.4660690000000000 O
   0.4942020000000000    0.8339070000000000    0.4664380000000000 O
   0.7048700000000000    0.8169070000000000    0.4653960000000000 O
   0.9057480000000000    0.8505010000000000    0.4655280000000000 O
   0.1050120000000000    0.8307850000000000    0.7978660000000000 O
   0.3048130000000000    0.8241360000000000    0.8008900000000000 O
   0.4946910000000000    0.8465680000000000    0.7999700000000000 O
   0.6946080000000000    0.8138069999999999    0.8012280000000001 O
   0.8982370000000000    0.8102760000000000    0.7983690000000000 O
   0.0952510000000000    0.8244290000000000    0.0313750000000000 O
   0.3041160000000000    0.8345600000000000    0.0353490000000000 O
   0.5061520000000000    0.8447220000000000    0.0333510000000000 O
   0.6950440000000000    0.8228890000000000    0.0325590000000000 O
   0.9071600000000000    0.8470660000000000    0.0338820000000000 O
   0.0891940000000000    0.8465340000000000    0.3680980000000000 O
   0.3146970000000000    0.8477740000000000    0.3684920000000000 O
   0.5008020000000000    0.8217350000000000    0.3664430000000000 O
   0.7007040000000000    0.8401060000000000    0.3688370000000000 O
   0.9047660000000000    0.8212420000000000    0.3656690000000000 O
   0.0939520000000000    0.8493849999999999    0.6994690000000000 O
   0.2970270000000000    0.8247540000000000    0.7020840000000000 O
   0.4995870000000000    0.8162770000000000    0.6998020000000000 O
   0.6944160000000000    0.8310070000000001    0.7023700000000000 O
   0.9065910000000000    0.8380210000000000    0.6994000000000000 O
   0.1042600000000000    0.1839220000000000    0.2009420000000000 O
   0.3038650000000000    0.1549960000000000    0.2007290000000000 O
   0.4947150000000000    0.1534310000000000    0.2010030000000000 O
   0.7079420000000000    0.1567370000000000    0.1999550000000000 O
   0.8947970000000000    0.1782430000000000    0.1993390000000000 O
   0.0961070000000000    0.1607200000000000    0.5340970000000000 O
   0.3047670000000000    0.1552310000000000    0.5339480000000000 O
   0.4939790000000000    0.1606000000000000    0.5343370000000000 O
   0.7046220000000000    0.1837760000000000    0.5343000000000000 O
   0.9057060000000000    0.1501150000000000    0.5339300000000000 O
   0.1052810000000000    0.1681440000000000    0.8690639999999999 O
   0.3048140000000000    0.1748190000000000    0.8660120000000000 O
   0.4952300000000000    0.1532900000000000    0.8666520000000000 O
   0.6952700000000001    0.1863640000000000    0.8666900000000000 O
   0.8993910000000001    0.1874460000000000    0.8687020000000000 O
   0.0939330000000000    0.1769970000000000    0.9689500000000000 O
   0.3040510000000000    0.1759190000000000    0.9644660000000000 O
   0.5059230000000000    0.1632910000000000    0.9653060000000000 O
   0.6952030000000000    0.1789530000000000    0.9666610000000000 O
   0.9070470000000000    0.1505730000000000    0.9675670000000000 O
   0.0904760000000000    0.1526980000000000    0.2983260000000000 O
   0.3150430000000000    0.1528980000000000    0.2987610000000000 O
   0.5000000000000000    0.1775880000000000    0.3011340000000000 O
   0.6983540000000000    0.1619210000000000    0.2975300000000000 O
   0.9046500000000000    0.1798320000000000    0.2996540000000000 O
   0.0943670000000000    0.1527110000000000    0.6333630000000000 O
   0.2968170000000000    0.1721100000000000    0.6314280000000000 O
   0.4982800000000000    0.1826180000000000    0.6344630000000000 O
   0.6944520000000000    0.1687220000000000    0.6313180000000000 O
   0.9065820000000000    0.1672640000000000    0.6326960000000000 O
   0.0017340000000000    0.6499060000000000    0.1996070000000000 O
   0.1939130000000000    0.6582290000000000    0.2001520000000000 O
   0.3968560000000000    0.6854510000000000    0.2010080000000000 O
   0.6054400000000000    0.6603940000000000    0.2025950000000000 O
   0.8053060000000000    0.6774010000000000    0.1992780000000000 O
   0.0038520000000000    0.6835070000000000    0.5336280000000000 O
   0.1984630000000000    0.6709500000000000    0.5352360000000000 O
   0.4031020000000000    0.6810990000000000    0.5334330000000000 O
   0.6050550000000000    0.6513620000000000    0.5334989999999999 O
   0.7941640000000000    0.6648240000000000    0.5342900000000000 O
   0.9963750000000000    0.6519790000000000    0.8683060000000000 O
   0.2053610000000000    0.6580410000000000    0.8675119999999999 O
   0.3949740000000000    0.6780700000000000    0.8663640000000000 O
   0.6028019999999999    0.6828890000000000    0.8659820000000000 O
   0.8039710000000000    0.6504750000000000    0.8679460000000000 O
   0.0045860000000000    0.6862780000000001    0.9675360000000000 O
   0.1982390000000000    0.6665090000000000    0.9647130000000000 O
   0.4036680000000000    0.6707680000000000    0.9643240000000000 O
   0.6046110000000000    0.6767570000000001    0.9663510000000000 O
   0.7921800000000000    0.6548960000000000    0.9653230000000000 O
   0.9930970000000000    0.6797410000000000    0.2999310000000000 O
   0.2033460000000000    0.6722770000000000    0.2969220000000000 O
   0.4123170000000000    0.6782210000000000    0.3012440000000000 O
   0.5953810000000000    0.6583130000000000    0.2994770000000000 O
   0.8060050000000000    0.6580810000000000    0.2989820000000000 O
   0.9955240000000000    0.6882230000000000    0.6333170000000000 O
   0.2046650000000000    0.6717000000000000    0.6314230000000000 O
   0.4041060000000000    0.6577990000000000    0.6341750000000000 O
   0.5952890000000000    0.6637050000000000    0.6324390000000000 O
   0.7974220000000000    0.6518260000000000    0.6311930000000000 O
